<?xml version="1.0" encoding="UTF-8"?><osil xmlns="os.optimizationservices.org"   xmlns:xsi="http://www.w3.org/2001/XMLSchema-instance" xsi:schemaLocation="os.optimizationservices.org http://www.optimizationservices.org/schemas/2.0/OSiL.xsd" ><instanceHeader><name>q_20_4_50_4</name></instanceHeader><instanceData><variables numberOfVariables="20"><var name="x1" ub="1"/><var name="x2" ub="1"/><var name="x3" ub="1"/><var name="x4" ub="1"/><var name="x5" ub="1"/><var name="x6" ub="1"/><var name="x7" ub="1"/><var name="x8" ub="1"/><var name="x9" ub="1"/><var name="x10" ub="1"/><var name="x11" ub="1"/><var name="x12" ub="1"/><var name="x13" ub="1"/><var name="x14" ub="1"/><var name="x15" ub="1"/><var name="x16" ub="1"/><var name="x17" ub="1"/><var name="x18" ub="1"/><var name="x19" ub="1"/><var name="x20" ub="1"/></variables><objectives numberOfObjectives="1"><obj maxOrMin="min" name="defObj_x21" numberOfObjCoef="20"><coef idx="0">.1355</coef><coef idx="1">-1.99e-2</coef><coef idx="2">.5916</coef><coef idx="3">.7127</coef><coef idx="4">-.4791</coef><coef idx="5">-.4204</coef><coef idx="6">-.7198</coef><coef idx="7">-.6757</coef><coef idx="8">-.9703</coef><coef idx="9">.2443</coef><coef idx="10">-.4939</coef><coef idx="11">-7.78e-2</coef><coef idx="12">-.2829</coef><coef idx="13">-.407</coef><coef idx="14">-.2477</coef><coef idx="15">.4317</coef><coef idx="16">5.2e-2</coef><coef idx="17">-2.73e-2</coef><coef idx="18">5.06e-2</coef><coef idx="19">-.6998</coef></obj></objectives><constraints numberOfConstraints="4"><con name="e2" ub="22.433"/><con name="e3" ub="52.877"/><con name="e4" ub="6.117"/><con name="e5" ub="1.143"/></constraints><linearConstraintCoefficients numberOfValues="80"><start><el mult="5" incr="20">0</el></start><colIdx><el mult="20" incr="1">0</el><el mult="20" incr="1">0</el><el mult="20" incr="1">0</el><el mult="20" incr="1">0</el></colIdx><value><el>.7982</el><el>.3731</el><el>-1.7e-3</el><el>-.5921</el><el>.4842</el><el>.5069</el><el>-.1334</el><el>.808</el><el>.4226</el><el>.3305</el><el>.6461</el><el>.3067</el><el>.4142</el><el>-.2218</el><el>-.1675</el><el>.222</el><el>-.6784</el><el>.8519</el><el>-6.65e-2</el><el>.275</el><el>-3.56e-2</el><el>-.9549</el><el>.6866</el><el>.3086</el><el>-.1925</el><el>-.553</el><el>-.6458</el><el>.4325</el><el>-.2427</el><el>-.5621</el><el>-.2479</el><el>.7563</el><el>.4603</el><el>.2355</el><el>.7211</el><el>.4588</el><el>-.7696</el><el>2.88e-2</el><el>.7588</el><el>-.442</el><el>.9931</el><el>.5255</el><el>.6954</el><el>-.7097</el><el>7.45e-2</el><el>.1756</el><el>-.6472</el><el>.1752</el><el>-.8324</el><el>-.9902</el><el>-.2037</el><el>-4.66e-2</el><el>.1012</el><el>-.6664</el><el>.3679</el><el>.5635</el><el>.1984</el><el>.652</el><el>.2001</el><el>3.8e-2</el><el>-.6048</el><el>-2.12e-2</el><el>.6836</el><el>-.6986</el><el>.2319</el><el>-.9808</el><el>.3688</el><el>-.4049</el><el>.4364</el><el>.5808</el><el>-.8313</el><el>.7748</el><el>-5.1e-2</el><el>-.7671</el><el>.5745</el><el>.7671</el><el>.1903</el><el>5.23e-2</el><el>.5563</el><el>-.4994</el></value></linearConstraintCoefficients><quadraticCoefficients  numberOfQuadraticTerms="525" ><qTerm  idx="-1"  idxOne="0"  idxTwo="1"  coef="-.7621"/><qTerm  idx="-1"  idxOne="0"  idxTwo="4"  coef="1.8529"/><qTerm  idx="-1"  idxOne="0"  idxTwo="8"  coef="1.2546"/><qTerm  idx="-1"  idxOne="0"  idxTwo="10"  coef=".7034"/><qTerm  idx="-1"  idxOne="0"  idxTwo="12"  coef="-8.76e-2"/><qTerm  idx="-1"  idxOne="0"  idxTwo="15"  coef="1.0017"/><qTerm  idx="-1"  idxOne="0"  idxTwo="17"  coef="1.8253"/><qTerm  idx="-1"  idxOne="0"  idxTwo="19"  coef="1.2865"/><qTerm  idx="-1"  idxOne="1"  idxTwo="1"  coef="-.6492"/><qTerm  idx="-1"  idxOne="1"  idxTwo="2"  coef=".3028"/><qTerm  idx="-1"  idxOne="1"  idxTwo="4"  coef="1.162"/><qTerm  idx="-1"  idxOne="1"  idxTwo="5"  coef="1.9468"/><qTerm  idx="-1"  idxOne="1"  idxTwo="9"  coef="-.4293"/><qTerm  idx="-1"  idxOne="1"  idxTwo="10"  coef="-.2262"/><qTerm  idx="-1"  idxOne="1"  idxTwo="12"  coef="-.449"/><qTerm  idx="-1"  idxOne="1"  idxTwo="17"  coef=".168"/><qTerm  idx="-1"  idxOne="1"  idxTwo="18"  coef="-1.6732"/><qTerm  idx="-1"  idxOne="2"  idxTwo="2"  coef=".6469"/><qTerm  idx="-1"  idxOne="2"  idxTwo="4"  coef="-1.6309"/><qTerm  idx="-1"  idxOne="2"  idxTwo="7"  coef="-.4101"/><qTerm  idx="-1"  idxOne="2"  idxTwo="10"  coef="-.7354"/><qTerm  idx="-1"  idxOne="2"  idxTwo="11"  coef="-.4415"/><qTerm  idx="-1"  idxOne="2"  idxTwo="12"  coef=".4118"/><qTerm  idx="-1"  idxOne="2"  idxTwo="13"  coef="-1.152"/><qTerm  idx="-1"  idxOne="2"  idxTwo="18"  coef="-.5508"/><qTerm  idx="-1"  idxOne="2"  idxTwo="19"  coef="-.86"/><qTerm  idx="-1"  idxOne="3"  idxTwo="5"  coef="1.7823"/><qTerm  idx="-1"  idxOne="3"  idxTwo="7"  coef="1.9354"/><qTerm  idx="-1"  idxOne="3"  idxTwo="8"  coef="-1.6759"/><qTerm  idx="-1"  idxOne="3"  idxTwo="10"  coef="7.57e-2"/><qTerm  idx="-1"  idxOne="3"  idxTwo="11"  coef=".8396"/><qTerm  idx="-1"  idxOne="3"  idxTwo="12"  coef="-8.e-2"/><qTerm  idx="-1"  idxOne="3"  idxTwo="15"  coef=".2843"/><qTerm  idx="-1"  idxOne="3"  idxTwo="16"  coef=".6312"/><qTerm  idx="-1"  idxOne="3"  idxTwo="19"  coef="1.4852"/><qTerm  idx="-1"  idxOne="4"  idxTwo="7"  coef=".2846"/><qTerm  idx="-1"  idxOne="4"  idxTwo="10"  coef="-.3446"/><qTerm  idx="-1"  idxOne="4"  idxTwo="11"  coef="1.2538"/><qTerm  idx="-1"  idxOne="4"  idxTwo="14"  coef="-1.8582"/><qTerm  idx="-1"  idxOne="4"  idxTwo="15"  coef="4.36e-2"/><qTerm  idx="-1"  idxOne="4"  idxTwo="16"  coef="-.6736"/><qTerm  idx="-1"  idxOne="5"  idxTwo="6"  coef="-.6463"/><qTerm  idx="-1"  idxOne="5"  idxTwo="7"  coef=".9052"/><qTerm  idx="-1"  idxOne="5"  idxTwo="9"  coef=".4387"/><qTerm  idx="-1"  idxOne="5"  idxTwo="10"  coef="-5.69e-2"/><qTerm  idx="-1"  idxOne="5"  idxTwo="11"  coef="-.3769"/><qTerm  idx="-1"  idxOne="5"  idxTwo="12"  coef=".7989"/><qTerm  idx="-1"  idxOne="5"  idxTwo="13"  coef="1.7703"/><qTerm  idx="-1"  idxOne="5"  idxTwo="14"  coef="-2.43e-2"/><qTerm  idx="-1"  idxOne="5"  idxTwo="15"  coef=".2361"/><qTerm  idx="-1"  idxOne="5"  idxTwo="16"  coef="-.2269"/><qTerm  idx="-1"  idxOne="5"  idxTwo="17"  coef="-.5079"/><qTerm  idx="-1"  idxOne="5"  idxTwo="18"  coef="1.4207"/><qTerm  idx="-1"  idxOne="6"  idxTwo="6"  coef="1.9026"/><qTerm  idx="-1"  idxOne="6"  idxTwo="11"  coef=".7592"/><qTerm  idx="-1"  idxOne="6"  idxTwo="12"  coef="1.0119"/><qTerm  idx="-1"  idxOne="6"  idxTwo="13"  coef="1.5911"/><qTerm  idx="-1"  idxOne="6"  idxTwo="17"  coef="-.4036"/><qTerm  idx="-1"  idxOne="7"  idxTwo="9"  coef="-1.9604"/><qTerm  idx="-1"  idxOne="7"  idxTwo="12"  coef="1.5273"/><qTerm  idx="-1"  idxOne="7"  idxTwo="13"  coef=".9238"/><qTerm  idx="-1"  idxOne="7"  idxTwo="14"  coef="-1.0734"/><qTerm  idx="-1"  idxOne="7"  idxTwo="15"  coef="-1.2688"/><qTerm  idx="-1"  idxOne="7"  idxTwo="16"  coef="-1.3178"/><qTerm  idx="-1"  idxOne="7"  idxTwo="17"  coef="-1.8022"/><qTerm  idx="-1"  idxOne="7"  idxTwo="19"  coef=".3076"/><qTerm  idx="-1"  idxOne="8"  idxTwo="12"  coef="-.6368"/><qTerm  idx="-1"  idxOne="8"  idxTwo="14"  coef="-1.7899"/><qTerm  idx="-1"  idxOne="8"  idxTwo="15"  coef=".4629"/><qTerm  idx="-1"  idxOne="9"  idxTwo="9"  coef=".9652"/><qTerm  idx="-1"  idxOne="9"  idxTwo="10"  coef=".6855"/><qTerm  idx="-1"  idxOne="9"  idxTwo="11"  coef="-.1387"/><qTerm  idx="-1"  idxOne="9"  idxTwo="12"  coef=".8177"/><qTerm  idx="-1"  idxOne="9"  idxTwo="13"  coef=".4674"/><qTerm  idx="-1"  idxOne="9"  idxTwo="15"  coef="-1.242"/><qTerm  idx="-1"  idxOne="9"  idxTwo="16"  coef="1.1188"/><qTerm  idx="-1"  idxOne="9"  idxTwo="18"  coef="-1.6908"/><qTerm  idx="-1"  idxOne="10"  idxTwo="12"  coef="1.1539"/><qTerm  idx="-1"  idxOne="10"  idxTwo="13"  coef=".6375"/><qTerm  idx="-1"  idxOne="10"  idxTwo="14"  coef="-1.1138"/><qTerm  idx="-1"  idxOne="10"  idxTwo="15"  coef="-1.2983"/><qTerm  idx="-1"  idxOne="10"  idxTwo="16"  coef="-.7516"/><qTerm  idx="-1"  idxOne="10"  idxTwo="17"  coef="-.2564"/><qTerm  idx="-1"  idxOne="10"  idxTwo="18"  coef="-.1048"/><qTerm  idx="-1"  idxOne="11"  idxTwo="12"  coef="-.342"/><qTerm  idx="-1"  idxOne="11"  idxTwo="14"  coef="1.1817"/><qTerm  idx="-1"  idxOne="11"  idxTwo="15"  coef=".6134"/><qTerm  idx="-1"  idxOne="11"  idxTwo="17"  coef=".2241"/><qTerm  idx="-1"  idxOne="11"  idxTwo="18"  coef="-.112"/><qTerm  idx="-1"  idxOne="11"  idxTwo="19"  coef="1.6168"/><qTerm  idx="-1"  idxOne="12"  idxTwo="15"  coef=".2481"/><qTerm  idx="-1"  idxOne="12"  idxTwo="16"  coef="-1.5013"/><qTerm  idx="-1"  idxOne="13"  idxTwo="15"  coef="-.2776"/><qTerm  idx="-1"  idxOne="13"  idxTwo="16"  coef="-1.2281"/><qTerm  idx="-1"  idxOne="14"  idxTwo="16"  coef=".5486"/><qTerm  idx="-1"  idxOne="14"  idxTwo="17"  coef="-.7013"/><qTerm  idx="-1"  idxOne="14"  idxTwo="18"  coef="-1.8314"/><qTerm  idx="-1"  idxOne="15"  idxTwo="16"  coef="-1.9506"/><qTerm  idx="-1"  idxOne="15"  idxTwo="17"  coef="-5.56e-2"/><qTerm  idx="-1"  idxOne="15"  idxTwo="18"  coef="-.4847"/><qTerm  idx="-1"  idxOne="16"  idxTwo="16"  coef=".3428"/><qTerm  idx="-1"  idxOne="16"  idxTwo="17"  coef=".114"/><qTerm  idx="-1"  idxOne="16"  idxTwo="18"  coef="-1.1041"/><qTerm  idx="-1"  idxOne="17"  idxTwo="17"  coef="-1.3636"/><qTerm  idx="-1"  idxOne="18"  idxTwo="18"  coef="1.1e-3"/><qTerm  idx="0"  idxOne="0"  idxTwo="6"  coef=".7984"/><qTerm  idx="0"  idxOne="0"  idxTwo="8"  coef="1.9359"/><qTerm  idx="0"  idxOne="0"  idxTwo="10"  coef="-5.78e-2"/><qTerm  idx="0"  idxOne="0"  idxTwo="12"  coef="1.0018"/><qTerm  idx="0"  idxOne="0"  idxTwo="16"  coef="-.2979"/><qTerm  idx="0"  idxOne="0"  idxTwo="17"  coef=".3074"/><qTerm  idx="0"  idxOne="0"  idxTwo="18"  coef=".1468"/><qTerm  idx="0"  idxOne="1"  idxTwo="2"  coef="1.7625"/><qTerm  idx="0"  idxOne="1"  idxTwo="4"  coef="-.5929"/><qTerm  idx="0"  idxOne="1"  idxTwo="5"  coef="-1.4876"/><qTerm  idx="0"  idxOne="1"  idxTwo="6"  coef="-.2089"/><qTerm  idx="0"  idxOne="1"  idxTwo="9"  coef="1.4717"/><qTerm  idx="0"  idxOne="1"  idxTwo="13"  coef="-1.693"/><qTerm  idx="0"  idxOne="1"  idxTwo="14"  coef=".2288"/><qTerm  idx="0"  idxOne="1"  idxTwo="15"  coef="1.0316"/><qTerm  idx="0"  idxOne="1"  idxTwo="16"  coef="-.2124"/><qTerm  idx="0"  idxOne="1"  idxTwo="17"  coef="1.2815"/><qTerm  idx="0"  idxOne="1"  idxTwo="19"  coef="-1.0297"/><qTerm  idx="0"  idxOne="2"  idxTwo="3"  coef="-1.5565"/><qTerm  idx="0"  idxOne="2"  idxTwo="4"  coef=".3836"/><qTerm  idx="0"  idxOne="2"  idxTwo="5"  coef="-1.5614"/><qTerm  idx="0"  idxOne="2"  idxTwo="6"  coef="-.518"/><qTerm  idx="0"  idxOne="2"  idxTwo="7"  coef="1.9113"/><qTerm  idx="0"  idxOne="2"  idxTwo="8"  coef="1.1632"/><qTerm  idx="0"  idxOne="2"  idxTwo="9"  coef="-.2408"/><qTerm  idx="0"  idxOne="2"  idxTwo="18"  coef="-1.0996"/><qTerm  idx="0"  idxOne="3"  idxTwo="4"  coef="-.4277"/><qTerm  idx="0"  idxOne="3"  idxTwo="7"  coef="-1.6748"/><qTerm  idx="0"  idxOne="3"  idxTwo="8"  coef="1.4565"/><qTerm  idx="0"  idxOne="3"  idxTwo="9"  coef=".6847"/><qTerm  idx="0"  idxOne="3"  idxTwo="10"  coef="-.2866"/><qTerm  idx="0"  idxOne="3"  idxTwo="13"  coef="1.7686"/><qTerm  idx="0"  idxOne="3"  idxTwo="16"  coef="-1.8919"/><qTerm  idx="0"  idxOne="3"  idxTwo="17"  coef="-1.1734"/><qTerm  idx="0"  idxOne="3"  idxTwo="18"  coef="-1.7934"/><qTerm  idx="0"  idxOne="4"  idxTwo="4"  coef="1.2322"/><qTerm  idx="0"  idxOne="4"  idxTwo="5"  coef=".1071"/><qTerm  idx="0"  idxOne="4"  idxTwo="8"  coef="1.3722"/><qTerm  idx="0"  idxOne="4"  idxTwo="9"  coef="-.4708"/><qTerm  idx="0"  idxOne="4"  idxTwo="10"  coef="-1.6331"/><qTerm  idx="0"  idxOne="4"  idxTwo="11"  coef=".7303"/><qTerm  idx="0"  idxOne="4"  idxTwo="14"  coef="-1.2915"/><qTerm  idx="0"  idxOne="5"  idxTwo="7"  coef="1.3882"/><qTerm  idx="0"  idxOne="5"  idxTwo="8"  coef=".6886"/><qTerm  idx="0"  idxOne="5"  idxTwo="11"  coef=".6931"/><qTerm  idx="0"  idxOne="5"  idxTwo="14"  coef="1.8083"/><qTerm  idx="0"  idxOne="5"  idxTwo="15"  coef="1.1441"/><qTerm  idx="0"  idxOne="5"  idxTwo="17"  coef="-1.7682"/><qTerm  idx="0"  idxOne="6"  idxTwo="6"  coef="-1.2974"/><qTerm  idx="0"  idxOne="6"  idxTwo="9"  coef=".3741"/><qTerm  idx="0"  idxOne="6"  idxTwo="10"  coef="1.9409"/><qTerm  idx="0"  idxOne="6"  idxTwo="12"  coef="-1.1959"/><qTerm  idx="0"  idxOne="6"  idxTwo="13"  coef="-7.69e-2"/><qTerm  idx="0"  idxOne="6"  idxTwo="14"  coef="-.8177"/><qTerm  idx="0"  idxOne="6"  idxTwo="15"  coef="1.8148"/><qTerm  idx="0"  idxOne="6"  idxTwo="17"  coef="1.5264"/><qTerm  idx="0"  idxOne="7"  idxTwo="8"  coef="-1.4488"/><qTerm  idx="0"  idxOne="7"  idxTwo="9"  coef="-.7913"/><qTerm  idx="0"  idxOne="7"  idxTwo="10"  coef="1.3946"/><qTerm  idx="0"  idxOne="7"  idxTwo="11"  coef="-1.5301"/><qTerm  idx="0"  idxOne="7"  idxTwo="12"  coef="-1.4907"/><qTerm  idx="0"  idxOne="7"  idxTwo="14"  coef=".6429"/><qTerm  idx="0"  idxOne="7"  idxTwo="16"  coef=".4492"/><qTerm  idx="0"  idxOne="7"  idxTwo="19"  coef="-1.788"/><qTerm  idx="0"  idxOne="8"  idxTwo="8"  coef=".9877"/><qTerm  idx="0"  idxOne="8"  idxTwo="9"  coef="-.9991"/><qTerm  idx="0"  idxOne="8"  idxTwo="11"  coef=".2524"/><qTerm  idx="0"  idxOne="8"  idxTwo="13"  coef=".7079"/><qTerm  idx="0"  idxOne="8"  idxTwo="16"  coef=".6109"/><qTerm  idx="0"  idxOne="8"  idxTwo="19"  coef="-4.99e-2"/><qTerm  idx="0"  idxOne="9"  idxTwo="11"  coef="-1.1131"/><qTerm  idx="0"  idxOne="9"  idxTwo="13"  coef="1.173"/><qTerm  idx="0"  idxOne="9"  idxTwo="14"  coef="-1.2396"/><qTerm  idx="0"  idxOne="9"  idxTwo="15"  coef="1.8876"/><qTerm  idx="0"  idxOne="9"  idxTwo="16"  coef=".7418"/><qTerm  idx="0"  idxOne="9"  idxTwo="17"  coef=".6301"/><qTerm  idx="0"  idxOne="9"  idxTwo="19"  coef="1.5477"/><qTerm  idx="0"  idxOne="10"  idxTwo="11"  coef="-.4515"/><qTerm  idx="0"  idxOne="10"  idxTwo="12"  coef="-.1925"/><qTerm  idx="0"  idxOne="10"  idxTwo="15"  coef="1.3665"/><qTerm  idx="0"  idxOne="10"  idxTwo="16"  coef="-.3382"/><qTerm  idx="0"  idxOne="10"  idxTwo="18"  coef="1.3335"/><qTerm  idx="0"  idxOne="10"  idxTwo="19"  coef="-1.177"/><qTerm  idx="0"  idxOne="11"  idxTwo="12"  coef="1.431"/><qTerm  idx="0"  idxOne="11"  idxTwo="14"  coef=".142"/><qTerm  idx="0"  idxOne="11"  idxTwo="15"  coef="-7.41e-2"/><qTerm  idx="0"  idxOne="11"  idxTwo="18"  coef=".1569"/><qTerm  idx="0"  idxOne="11"  idxTwo="19"  coef=".8477"/><qTerm  idx="0"  idxOne="12"  idxTwo="16"  coef="-.7406"/><qTerm  idx="0"  idxOne="12"  idxTwo="17"  coef=".8187"/><qTerm  idx="0"  idxOne="12"  idxTwo="18"  coef="1.3539"/><qTerm  idx="0"  idxOne="12"  idxTwo="19"  coef="-1.3642"/><qTerm  idx="0"  idxOne="13"  idxTwo="13"  coef="-1.704"/><qTerm  idx="0"  idxOne="13"  idxTwo="14"  coef="-1.6537"/><qTerm  idx="0"  idxOne="13"  idxTwo="15"  coef="-1.1822"/><qTerm  idx="0"  idxOne="13"  idxTwo="17"  coef="-1.9919"/><qTerm  idx="0"  idxOne="14"  idxTwo="16"  coef=".407"/><qTerm  idx="0"  idxOne="15"  idxTwo="17"  coef=".9186"/><qTerm  idx="0"  idxOne="16"  idxTwo="16"  coef="-1.7553"/><qTerm  idx="0"  idxOne="16"  idxTwo="17"  coef="-1.4024"/><qTerm  idx="0"  idxOne="16"  idxTwo="18"  coef=".2142"/><qTerm  idx="0"  idxOne="17"  idxTwo="18"  coef="1.0527"/><qTerm  idx="0"  idxOne="17"  idxTwo="19"  coef="-1.3717"/><qTerm  idx="0"  idxOne="18"  idxTwo="18"  coef=".5723"/><qTerm  idx="0"  idxOne="18"  idxTwo="19"  coef="-1.2102"/><qTerm  idx="1"  idxOne="0"  idxTwo="2"  coef="1.4755"/><qTerm  idx="1"  idxOne="0"  idxTwo="4"  coef="-1.1833"/><qTerm  idx="1"  idxOne="0"  idxTwo="5"  coef=".7319"/><qTerm  idx="1"  idxOne="0"  idxTwo="8"  coef="-1.8546"/><qTerm  idx="1"  idxOne="0"  idxTwo="11"  coef="-1.9647"/><qTerm  idx="1"  idxOne="0"  idxTwo="14"  coef="-.9098"/><qTerm  idx="1"  idxOne="0"  idxTwo="17"  coef="1.9862"/><qTerm  idx="1"  idxOne="1"  idxTwo="4"  coef="-1.9808"/><qTerm  idx="1"  idxOne="1"  idxTwo="5"  coef="-2.36e-2"/><qTerm  idx="1"  idxOne="1"  idxTwo="6"  coef=".6483"/><qTerm  idx="1"  idxOne="1"  idxTwo="7"  coef="1.6704"/><qTerm  idx="1"  idxOne="1"  idxTwo="8"  coef="-1.345"/><qTerm  idx="1"  idxOne="1"  idxTwo="9"  coef="-1.5119"/><qTerm  idx="1"  idxOne="1"  idxTwo="10"  coef="-1.378"/><qTerm  idx="1"  idxOne="1"  idxTwo="12"  coef=".7245"/><qTerm  idx="1"  idxOne="1"  idxTwo="16"  coef=".5063"/><qTerm  idx="1"  idxOne="1"  idxTwo="18"  coef="1.2997"/><qTerm  idx="1"  idxOne="1"  idxTwo="19"  coef="-1.1699"/><qTerm  idx="1"  idxOne="2"  idxTwo="4"  coef="1.1962"/><qTerm  idx="1"  idxOne="2"  idxTwo="5"  coef="1.8742"/><qTerm  idx="1"  idxOne="2"  idxTwo="8"  coef="-1.5398"/><qTerm  idx="1"  idxOne="2"  idxTwo="9"  coef="1.4946"/><qTerm  idx="1"  idxOne="2"  idxTwo="11"  coef="-1.1477"/><qTerm  idx="1"  idxOne="2"  idxTwo="16"  coef="-.7348"/><qTerm  idx="1"  idxOne="2"  idxTwo="17"  coef="-1.6449"/><qTerm  idx="1"  idxOne="2"  idxTwo="19"  coef="-.9226"/><qTerm  idx="1"  idxOne="3"  idxTwo="4"  coef="1.9801"/><qTerm  idx="1"  idxOne="3"  idxTwo="6"  coef=".9211"/><qTerm  idx="1"  idxOne="3"  idxTwo="7"  coef="-.5806"/><qTerm  idx="1"  idxOne="3"  idxTwo="8"  coef=".3972"/><qTerm  idx="1"  idxOne="3"  idxTwo="10"  coef=".2706"/><qTerm  idx="1"  idxOne="3"  idxTwo="13"  coef="-1.2797"/><qTerm  idx="1"  idxOne="3"  idxTwo="14"  coef="-1.7443"/><qTerm  idx="1"  idxOne="3"  idxTwo="16"  coef=".3227"/><qTerm  idx="1"  idxOne="4"  idxTwo="4"  coef="-.7661"/><qTerm  idx="1"  idxOne="4"  idxTwo="5"  coef="1.0655"/><qTerm  idx="1"  idxOne="4"  idxTwo="7"  coef="1.2356"/><qTerm  idx="1"  idxOne="4"  idxTwo="8"  coef="-.3834"/><qTerm  idx="1"  idxOne="4"  idxTwo="9"  coef=".5595"/><qTerm  idx="1"  idxOne="4"  idxTwo="11"  coef=".7208"/><qTerm  idx="1"  idxOne="4"  idxTwo="12"  coef="-.9243"/><qTerm  idx="1"  idxOne="4"  idxTwo="13"  coef="-.774"/><qTerm  idx="1"  idxOne="4"  idxTwo="14"  coef="1.5284"/><qTerm  idx="1"  idxOne="4"  idxTwo="16"  coef="1.3991"/><qTerm  idx="1"  idxOne="4"  idxTwo="17"  coef=".7662"/><qTerm  idx="1"  idxOne="4"  idxTwo="18"  coef="1.7641"/><qTerm  idx="1"  idxOne="5"  idxTwo="6"  coef="1.6673"/><qTerm  idx="1"  idxOne="5"  idxTwo="8"  coef="-.8695"/><qTerm  idx="1"  idxOne="5"  idxTwo="10"  coef=".2381"/><qTerm  idx="1"  idxOne="5"  idxTwo="11"  coef="1.8667"/><qTerm  idx="1"  idxOne="5"  idxTwo="12"  coef="-.973"/><qTerm  idx="1"  idxOne="5"  idxTwo="13"  coef="-.7936"/><qTerm  idx="1"  idxOne="5"  idxTwo="16"  coef="-1.2046"/><qTerm  idx="1"  idxOne="5"  idxTwo="17"  coef="-.1964"/><qTerm  idx="1"  idxOne="5"  idxTwo="18"  coef=".8342"/><qTerm  idx="1"  idxOne="6"  idxTwo="7"  coef="-.5602"/><qTerm  idx="1"  idxOne="6"  idxTwo="14"  coef="-.1629"/><qTerm  idx="1"  idxOne="6"  idxTwo="15"  coef="-7.95e-2"/><qTerm  idx="1"  idxOne="6"  idxTwo="17"  coef=".2865"/><qTerm  idx="1"  idxOne="6"  idxTwo="18"  coef="1.6395"/><qTerm  idx="1"  idxOne="7"  idxTwo="8"  coef=".7779"/><qTerm  idx="1"  idxOne="7"  idxTwo="10"  coef=".377"/><qTerm  idx="1"  idxOne="7"  idxTwo="12"  coef="-1.3203"/><qTerm  idx="1"  idxOne="7"  idxTwo="13"  coef=".1234"/><qTerm  idx="1"  idxOne="7"  idxTwo="14"  coef="1.2252"/><qTerm  idx="1"  idxOne="7"  idxTwo="15"  coef=".5704"/><qTerm  idx="1"  idxOne="7"  idxTwo="18"  coef="1.7733"/><qTerm  idx="1"  idxOne="8"  idxTwo="9"  coef=".9525"/><qTerm  idx="1"  idxOne="8"  idxTwo="11"  coef=".5941"/><qTerm  idx="1"  idxOne="8"  idxTwo="13"  coef="-1.5108"/><qTerm  idx="1"  idxOne="8"  idxTwo="14"  coef="1.3296"/><qTerm  idx="1"  idxOne="8"  idxTwo="15"  coef=".6045"/><qTerm  idx="1"  idxOne="8"  idxTwo="18"  coef="-.8263"/><qTerm  idx="1"  idxOne="9"  idxTwo="9"  coef=".1647"/><qTerm  idx="1"  idxOne="9"  idxTwo="10"  coef="-.4544"/><qTerm  idx="1"  idxOne="9"  idxTwo="13"  coef="-.9362"/><qTerm  idx="1"  idxOne="9"  idxTwo="14"  coef="1.1314"/><qTerm  idx="1"  idxOne="10"  idxTwo="10"  coef=".7577"/><qTerm  idx="1"  idxOne="10"  idxTwo="12"  coef=".8449"/><qTerm  idx="1"  idxOne="10"  idxTwo="14"  coef="-1.6782"/><qTerm  idx="1"  idxOne="10"  idxTwo="16"  coef="-.4762"/><qTerm  idx="1"  idxOne="11"  idxTwo="11"  coef="1.0851"/><qTerm  idx="1"  idxOne="11"  idxTwo="13"  coef="-1.7348"/><qTerm  idx="1"  idxOne="11"  idxTwo="15"  coef="-.5171"/><qTerm  idx="1"  idxOne="11"  idxTwo="16"  coef="-1.2732"/><qTerm  idx="1"  idxOne="11"  idxTwo="18"  coef="1.7511"/><qTerm  idx="1"  idxOne="11"  idxTwo="19"  coef="-.1165"/><qTerm  idx="1"  idxOne="12"  idxTwo="13"  coef="1.7834"/><qTerm  idx="1"  idxOne="12"  idxTwo="14"  coef="-1.5921"/><qTerm  idx="1"  idxOne="12"  idxTwo="17"  coef="-1.0721"/><qTerm  idx="1"  idxOne="13"  idxTwo="14"  coef="-1.8415"/><qTerm  idx="1"  idxOne="13"  idxTwo="15"  coef="-1.3622"/><qTerm  idx="1"  idxOne="13"  idxTwo="16"  coef="-.8376"/><qTerm  idx="1"  idxOne="13"  idxTwo="17"  coef="-.1676"/><qTerm  idx="1"  idxOne="13"  idxTwo="18"  coef="-1.4659"/><qTerm  idx="1"  idxOne="14"  idxTwo="14"  coef=".4844"/><qTerm  idx="1"  idxOne="14"  idxTwo="16"  coef="-1.5306"/><qTerm  idx="1"  idxOne="14"  idxTwo="17"  coef="-.3768"/><qTerm  idx="1"  idxOne="14"  idxTwo="18"  coef="-1.6872"/><qTerm  idx="1"  idxOne="15"  idxTwo="16"  coef="-1.2645"/><qTerm  idx="1"  idxOne="15"  idxTwo="19"  coef="1.3581"/><qTerm  idx="1"  idxOne="16"  idxTwo="16"  coef=".5225"/><qTerm  idx="1"  idxOne="16"  idxTwo="17"  coef=".4491"/><qTerm  idx="1"  idxOne="16"  idxTwo="18"  coef=".9649"/><qTerm  idx="1"  idxOne="17"  idxTwo="19"  coef="1.3957"/><qTerm  idx="2"  idxOne="0"  idxTwo="1"  coef="-.2227"/><qTerm  idx="2"  idxOne="0"  idxTwo="4"  coef="1.4219"/><qTerm  idx="2"  idxOne="0"  idxTwo="6"  coef=".3872"/><qTerm  idx="2"  idxOne="0"  idxTwo="7"  coef="-1.9469"/><qTerm  idx="2"  idxOne="0"  idxTwo="10"  coef=".9715"/><qTerm  idx="2"  idxOne="0"  idxTwo="11"  coef=".6205"/><qTerm  idx="2"  idxOne="0"  idxTwo="12"  coef="1.4014"/><qTerm  idx="2"  idxOne="0"  idxTwo="15"  coef="-1.8181"/><qTerm  idx="2"  idxOne="0"  idxTwo="18"  coef="-1.9814"/><qTerm  idx="2"  idxOne="1"  idxTwo="2"  coef="1.7063"/><qTerm  idx="2"  idxOne="1"  idxTwo="4"  coef="-9.36e-2"/><qTerm  idx="2"  idxOne="1"  idxTwo="5"  coef="1.7832"/><qTerm  idx="2"  idxOne="1"  idxTwo="6"  coef="-.4222"/><qTerm  idx="2"  idxOne="1"  idxTwo="7"  coef=".6754"/><qTerm  idx="2"  idxOne="1"  idxTwo="9"  coef="-1.9993"/><qTerm  idx="2"  idxOne="1"  idxTwo="12"  coef="1.435"/><qTerm  idx="2"  idxOne="1"  idxTwo="17"  coef="1.9409"/><qTerm  idx="2"  idxOne="1"  idxTwo="18"  coef="-1.5614"/><qTerm  idx="2"  idxOne="1"  idxTwo="19"  coef="-.5789"/><qTerm  idx="2"  idxOne="2"  idxTwo="2"  coef=".9777"/><qTerm  idx="2"  idxOne="2"  idxTwo="4"  coef="-2.38e-2"/><qTerm  idx="2"  idxOne="2"  idxTwo="7"  coef=".6764"/><qTerm  idx="2"  idxOne="2"  idxTwo="8"  coef="-.4543"/><qTerm  idx="2"  idxOne="2"  idxTwo="9"  coef="-1.2627"/><qTerm  idx="2"  idxOne="2"  idxTwo="14"  coef=".2038"/><qTerm  idx="2"  idxOne="2"  idxTwo="17"  coef="-2.85e-2"/><qTerm  idx="2"  idxOne="2"  idxTwo="18"  coef="1.7799"/><qTerm  idx="2"  idxOne="3"  idxTwo="5"  coef="-1.8304"/><qTerm  idx="2"  idxOne="3"  idxTwo="9"  coef=".6025"/><qTerm  idx="2"  idxOne="3"  idxTwo="13"  coef="-1.6494"/><qTerm  idx="2"  idxOne="3"  idxTwo="14"  coef="-1.2678"/><qTerm  idx="2"  idxOne="3"  idxTwo="15"  coef="-1.3863"/><qTerm  idx="2"  idxOne="3"  idxTwo="17"  coef="1.7264"/><qTerm  idx="2"  idxOne="3"  idxTwo="19"  coef=".5785"/><qTerm  idx="2"  idxOne="4"  idxTwo="4"  coef="1.6727"/><qTerm  idx="2"  idxOne="4"  idxTwo="5"  coef="-1.8404"/><qTerm  idx="2"  idxOne="4"  idxTwo="6"  coef="-1.0707"/><qTerm  idx="2"  idxOne="4"  idxTwo="7"  coef="-.6219"/><qTerm  idx="2"  idxOne="4"  idxTwo="9"  coef="1.2434"/><qTerm  idx="2"  idxOne="4"  idxTwo="10"  coef="-.4127"/><qTerm  idx="2"  idxOne="4"  idxTwo="11"  coef="1.8853"/><qTerm  idx="2"  idxOne="4"  idxTwo="12"  coef="-1.2363"/><qTerm  idx="2"  idxOne="4"  idxTwo="14"  coef="-1.6162"/><qTerm  idx="2"  idxOne="4"  idxTwo="16"  coef=".3424"/><qTerm  idx="2"  idxOne="4"  idxTwo="17"  coef="-1.3277"/><qTerm  idx="2"  idxOne="4"  idxTwo="18"  coef=".1748"/><qTerm  idx="2"  idxOne="5"  idxTwo="5"  coef="-1.1598"/><qTerm  idx="2"  idxOne="5"  idxTwo="6"  coef=".9002"/><qTerm  idx="2"  idxOne="5"  idxTwo="9"  coef="-.4681"/><qTerm  idx="2"  idxOne="5"  idxTwo="10"  coef="-.9062"/><qTerm  idx="2"  idxOne="5"  idxTwo="13"  coef="-.3754"/><qTerm  idx="2"  idxOne="5"  idxTwo="14"  coef="1.5741"/><qTerm  idx="2"  idxOne="5"  idxTwo="15"  coef="-.1372"/><qTerm  idx="2"  idxOne="5"  idxTwo="16"  coef="1.118"/><qTerm  idx="2"  idxOne="5"  idxTwo="17"  coef=".532"/><qTerm  idx="2"  idxOne="5"  idxTwo="18"  coef="1.2187"/><qTerm  idx="2"  idxOne="5"  idxTwo="19"  coef="-.1312"/><qTerm  idx="2"  idxOne="6"  idxTwo="8"  coef="-.9061"/><qTerm  idx="2"  idxOne="6"  idxTwo="9"  coef="-.3241"/><qTerm  idx="2"  idxOne="6"  idxTwo="11"  coef="-1.2455"/><qTerm  idx="2"  idxOne="6"  idxTwo="13"  coef=".5216"/><qTerm  idx="2"  idxOne="6"  idxTwo="14"  coef="1.8937"/><qTerm  idx="2"  idxOne="6"  idxTwo="15"  coef="-1.4864"/><qTerm  idx="2"  idxOne="6"  idxTwo="18"  coef=".3462"/><qTerm  idx="2"  idxOne="7"  idxTwo="7"  coef="1.6063"/><qTerm  idx="2"  idxOne="7"  idxTwo="9"  coef="1.6735"/><qTerm  idx="2"  idxOne="7"  idxTwo="13"  coef="1.9716"/><qTerm  idx="2"  idxOne="7"  idxTwo="14"  coef="1.8372"/><qTerm  idx="2"  idxOne="7"  idxTwo="16"  coef="-1.9794"/><qTerm  idx="2"  idxOne="7"  idxTwo="17"  coef="-.9365"/><qTerm  idx="2"  idxOne="7"  idxTwo="18"  coef="-1.6941"/><qTerm  idx="2"  idxOne="8"  idxTwo="9"  coef="-1.3763"/><qTerm  idx="2"  idxOne="8"  idxTwo="11"  coef="-1.7202"/><qTerm  idx="2"  idxOne="8"  idxTwo="16"  coef="1.4419"/><qTerm  idx="2"  idxOne="8"  idxTwo="17"  coef="1.2783"/><qTerm  idx="2"  idxOne="8"  idxTwo="18"  coef="1.1874"/><qTerm  idx="2"  idxOne="9"  idxTwo="10"  coef="-1.3141"/><qTerm  idx="2"  idxOne="9"  idxTwo="12"  coef="-1.2761"/><qTerm  idx="2"  idxOne="9"  idxTwo="14"  coef="1.2274"/><qTerm  idx="2"  idxOne="9"  idxTwo="15"  coef=".3236"/><qTerm  idx="2"  idxOne="9"  idxTwo="18"  coef="-.9056"/><qTerm  idx="2"  idxOne="10"  idxTwo="12"  coef=".1389"/><qTerm  idx="2"  idxOne="10"  idxTwo="13"  coef="1.4475"/><qTerm  idx="2"  idxOne="10"  idxTwo="16"  coef="-.4968"/><qTerm  idx="2"  idxOne="10"  idxTwo="17"  coef="1.9695"/><qTerm  idx="2"  idxOne="11"  idxTwo="12"  coef="-1.642"/><qTerm  idx="2"  idxOne="11"  idxTwo="13"  coef=".2962"/><qTerm  idx="2"  idxOne="11"  idxTwo="15"  coef=".5656"/><qTerm  idx="2"  idxOne="11"  idxTwo="17"  coef="1.9924"/><qTerm  idx="2"  idxOne="12"  idxTwo="13"  coef=".1175"/><qTerm  idx="2"  idxOne="12"  idxTwo="15"  coef=".9807"/><qTerm  idx="2"  idxOne="12"  idxTwo="17"  coef=".1138"/><qTerm  idx="2"  idxOne="12"  idxTwo="18"  coef=".8143"/><qTerm  idx="2"  idxOne="12"  idxTwo="19"  coef="-1.96"/><qTerm  idx="2"  idxOne="13"  idxTwo="14"  coef="-1.253"/><qTerm  idx="2"  idxOne="14"  idxTwo="14"  coef=".9369"/><qTerm  idx="2"  idxOne="14"  idxTwo="15"  coef="1.0533"/><qTerm  idx="2"  idxOne="14"  idxTwo="16"  coef="-.9922"/><qTerm  idx="2"  idxOne="15"  idxTwo="16"  coef="4.63e-2"/><qTerm  idx="2"  idxOne="15"  idxTwo="17"  coef="-.1988"/><qTerm  idx="2"  idxOne="15"  idxTwo="19"  coef="-1.8062"/><qTerm  idx="2"  idxOne="16"  idxTwo="18"  coef="-1.6574"/><qTerm  idx="2"  idxOne="16"  idxTwo="19"  coef="-4.24e-2"/><qTerm  idx="2"  idxOne="17"  idxTwo="18"  coef="-.3562"/><qTerm  idx="2"  idxOne="18"  idxTwo="18"  coef="1.6948"/><qTerm  idx="3"  idxOne="0"  idxTwo="1"  coef="-1.4057"/><qTerm  idx="3"  idxOne="0"  idxTwo="2"  coef="1.4622"/><qTerm  idx="3"  idxOne="0"  idxTwo="4"  coef="-.5711"/><qTerm  idx="3"  idxOne="0"  idxTwo="5"  coef=".4495"/><qTerm  idx="3"  idxOne="0"  idxTwo="6"  coef="-1.7831"/><qTerm  idx="3"  idxOne="0"  idxTwo="9"  coef=".6068"/><qTerm  idx="3"  idxOne="0"  idxTwo="14"  coef="1.6001"/><qTerm  idx="3"  idxOne="0"  idxTwo="15"  coef="-.801"/><qTerm  idx="3"  idxOne="0"  idxTwo="17"  coef=".9968"/><qTerm  idx="3"  idxOne="1"  idxTwo="1"  coef="1.7544"/><qTerm  idx="3"  idxOne="1"  idxTwo="2"  coef="-.3298"/><qTerm  idx="3"  idxOne="1"  idxTwo="6"  coef="-1.9926"/><qTerm  idx="3"  idxOne="1"  idxTwo="8"  coef="5.2e-2"/><qTerm  idx="3"  idxOne="1"  idxTwo="10"  coef="1.5572"/><qTerm  idx="3"  idxOne="1"  idxTwo="11"  coef="-.7879"/><qTerm  idx="3"  idxOne="1"  idxTwo="13"  coef=".3272"/><qTerm  idx="3"  idxOne="1"  idxTwo="14"  coef="-.1421"/><qTerm  idx="3"  idxOne="1"  idxTwo="16"  coef="-1.5257"/><qTerm  idx="3"  idxOne="1"  idxTwo="17"  coef="-.3955"/><qTerm  idx="3"  idxOne="2"  idxTwo="2"  coef=".5536"/><qTerm  idx="3"  idxOne="2"  idxTwo="4"  coef="-.9924"/><qTerm  idx="3"  idxOne="2"  idxTwo="5"  coef="-1.3678"/><qTerm  idx="3"  idxOne="2"  idxTwo="6"  coef="-.756"/><qTerm  idx="3"  idxOne="2"  idxTwo="7"  coef="1.8041"/><qTerm  idx="3"  idxOne="2"  idxTwo="9"  coef="-.1699"/><qTerm  idx="3"  idxOne="2"  idxTwo="10"  coef="-.7985"/><qTerm  idx="3"  idxOne="2"  idxTwo="13"  coef="1.585"/><qTerm  idx="3"  idxOne="2"  idxTwo="14"  coef="-1.1001"/><qTerm  idx="3"  idxOne="2"  idxTwo="18"  coef="-1.2904"/><qTerm  idx="3"  idxOne="3"  idxTwo="6"  coef="-1.9052"/><qTerm  idx="3"  idxOne="3"  idxTwo="7"  coef="-.5353"/><qTerm  idx="3"  idxOne="3"  idxTwo="8"  coef="-.1969"/><qTerm  idx="3"  idxOne="3"  idxTwo="9"  coef="-1.2384"/><qTerm  idx="3"  idxOne="3"  idxTwo="13"  coef=".7213"/><qTerm  idx="3"  idxOne="3"  idxTwo="15"  coef="-.2006"/><qTerm  idx="3"  idxOne="3"  idxTwo="16"  coef=".1566"/><qTerm  idx="3"  idxOne="3"  idxTwo="17"  coef="-1.7963"/><qTerm  idx="3"  idxOne="3"  idxTwo="18"  coef=".643"/><qTerm  idx="3"  idxOne="4"  idxTwo="4"  coef=".8984"/><qTerm  idx="3"  idxOne="4"  idxTwo="5"  coef="-.7765"/><qTerm  idx="3"  idxOne="4"  idxTwo="10"  coef="-1.852"/><qTerm  idx="3"  idxOne="4"  idxTwo="12"  coef=".9302"/><qTerm  idx="3"  idxOne="4"  idxTwo="13"  coef="-.9014"/><qTerm  idx="3"  idxOne="4"  idxTwo="14"  coef="-.7995"/><qTerm  idx="3"  idxOne="4"  idxTwo="16"  coef="-1.4837"/><qTerm  idx="3"  idxOne="4"  idxTwo="19"  coef="-1.9235"/><qTerm  idx="3"  idxOne="5"  idxTwo="7"  coef=".9531"/><qTerm  idx="3"  idxOne="5"  idxTwo="8"  coef=".5991"/><qTerm  idx="3"  idxOne="5"  idxTwo="9"  coef="-1.9899"/><qTerm  idx="3"  idxOne="5"  idxTwo="10"  coef=".5446"/><qTerm  idx="3"  idxOne="5"  idxTwo="12"  coef=".9409"/><qTerm  idx="3"  idxOne="5"  idxTwo="14"  coef="-.559"/><qTerm  idx="3"  idxOne="5"  idxTwo="15"  coef="-.7007"/><qTerm  idx="3"  idxOne="5"  idxTwo="16"  coef="-1.1051"/><qTerm  idx="3"  idxOne="5"  idxTwo="17"  coef="-1.2848"/><qTerm  idx="3"  idxOne="6"  idxTwo="7"  coef="-4.88e-2"/><qTerm  idx="3"  idxOne="6"  idxTwo="13"  coef="-1.8268"/><qTerm  idx="3"  idxOne="6"  idxTwo="14"  coef="-1.8138"/><qTerm  idx="3"  idxOne="6"  idxTwo="15"  coef="-1.9428"/><qTerm  idx="3"  idxOne="6"  idxTwo="17"  coef="-1.1642"/><qTerm  idx="3"  idxOne="7"  idxTwo="8"  coef=".8254"/><qTerm  idx="3"  idxOne="7"  idxTwo="9"  coef=".555"/><qTerm  idx="3"  idxOne="7"  idxTwo="13"  coef="-1.6147"/><qTerm  idx="3"  idxOne="7"  idxTwo="14"  coef="-1.9679"/><qTerm  idx="3"  idxOne="7"  idxTwo="15"  coef="-.1448"/><qTerm  idx="3"  idxOne="7"  idxTwo="17"  coef="-.3811"/><qTerm  idx="3"  idxOne="7"  idxTwo="18"  coef="-1.2255"/><qTerm  idx="3"  idxOne="8"  idxTwo="8"  coef="-.2869"/><qTerm  idx="3"  idxOne="8"  idxTwo="13"  coef="-.5953"/><qTerm  idx="3"  idxOne="8"  idxTwo="17"  coef=".8588"/><qTerm  idx="3"  idxOne="8"  idxTwo="18"  coef=".1716"/><qTerm  idx="3"  idxOne="8"  idxTwo="19"  coef="-1.5798"/><qTerm  idx="3"  idxOne="9"  idxTwo="10"  coef="1.5454"/><qTerm  idx="3"  idxOne="9"  idxTwo="11"  coef="3.36e-2"/><qTerm  idx="3"  idxOne="9"  idxTwo="14"  coef=".6361"/><qTerm  idx="3"  idxOne="9"  idxTwo="15"  coef=".8402"/><qTerm  idx="3"  idxOne="9"  idxTwo="17"  coef=".774"/><qTerm  idx="3"  idxOne="10"  idxTwo="11"  coef="-1.3459"/><qTerm  idx="3"  idxOne="10"  idxTwo="12"  coef="-1.1462"/><qTerm  idx="3"  idxOne="10"  idxTwo="15"  coef="1.7325"/><qTerm  idx="3"  idxOne="10"  idxTwo="16"  coef=".2727"/><qTerm  idx="3"  idxOne="10"  idxTwo="17"  coef="5.39e-2"/><qTerm  idx="3"  idxOne="10"  idxTwo="18"  coef="-1.1831"/><qTerm  idx="3"  idxOne="11"  idxTwo="13"  coef="-.3743"/><qTerm  idx="3"  idxOne="11"  idxTwo="14"  coef="-1.7061"/><qTerm  idx="3"  idxOne="11"  idxTwo="16"  coef="-1.679"/><qTerm  idx="3"  idxOne="11"  idxTwo="18"  coef=".4114"/><qTerm  idx="3"  idxOne="12"  idxTwo="12"  coef="-.1077"/><qTerm  idx="3"  idxOne="12"  idxTwo="14"  coef="-.8091"/><qTerm  idx="3"  idxOne="12"  idxTwo="15"  coef=".494"/><qTerm  idx="3"  idxOne="12"  idxTwo="16"  coef="1.516"/><qTerm  idx="3"  idxOne="12"  idxTwo="17"  coef="1.4244"/><qTerm  idx="3"  idxOne="13"  idxTwo="13"  coef="1.3453"/><qTerm  idx="3"  idxOne="13"  idxTwo="15"  coef=".8479"/><qTerm  idx="3"  idxOne="13"  idxTwo="18"  coef="-.6386"/><qTerm  idx="3"  idxOne="13"  idxTwo="19"  coef="-1.3163"/><qTerm  idx="3"  idxOne="14"  idxTwo="15"  coef="1.8112"/><qTerm  idx="3"  idxOne="14"  idxTwo="16"  coef=".8366"/><qTerm  idx="3"  idxOne="14"  idxTwo="17"  coef="1.4021"/><qTerm  idx="3"  idxOne="14"  idxTwo="18"  coef="-.9998"/><qTerm  idx="3"  idxOne="16"  idxTwo="16"  coef=".3165"/><qTerm  idx="3"  idxOne="16"  idxTwo="17"  coef=".3467"/><qTerm  idx="3"  idxOne="17"  idxTwo="18"  coef="1.2607"/><qTerm  idx="3"  idxOne="17"  idxTwo="19"  coef=".485"/><qTerm  idx="3"  idxOne="19"  idxTwo="19"  coef="1.0226"/></quadraticCoefficients></instanceData></osil>
